exams={
FILOSOFIA_MORALE_I,
FILOSOFIA_POLITICA,
FILOSOFIA_TEORETICA_I,
LOGICA_I,
STORIA_DELLA_FILOSOFIA,
STORIA_DELLA_FILOSOFIA_ANTICA,


ANTROPOLOGIA_FILOSOFICA,
ELEMENTI_DI_TEORIA_DELLA_CONOSCENZA,
ESTETICA,
ETICA_APPLICATA,
FILOSOFIA_DELLA_LOGICA_E_DEL_LINGUAGGIO,
FILOSOFIA_DELLA_MENTE,
FILOSOFIA_DELLA_SCIENZA,
FILOSOFIA_SOCIALE,
LOGICA_II,
STORIA_DELL_ESTETICA,
STORIA_MODERNA,


ABILITA_INFORMATICHE,
CONOSCENZA_LINGUA_STRANIERA,
GEOGRAFIA_POLITICA,
ISTITUZIONI_DI_SOCIOLOGIA,
LETTERATURA_FRANCESE,
LETTERATURA_GRECA_I,
LETTERATURA_INGLESE,
LETTERATURA_ITALIANA,
LETTERATURA_LATINA,
LETTERATURA_TEDESCA,
LETTERATURE_COMPARATE,
LINGUISTICA_GENERALE,
SERVIZI_DI_ORIENTAMENTO_AL_LAVORO,
TIROCINIO,
};

cfu=[12,12,12,12,6,6,  6,6,6,6,6,6,6,6,6,6,12,  6,6,6,6,6,6,6,6,6,6,6,6,1,5];

ASSD={SPS_01,M_STO_02, INF, INGL, M_GGR_01, SPS_07, L_LIN_03, L_FIL_LET_02, L_LIN_10, L_FIL_LET_10, L_FIL_LET_04, L_LIN_13, L_FIL_LET_14, L_LIN_01, TIR, M_STO_04, L_ANT_02, M_STO_01, L_ANT_01};
CSSD={M_FIL_03, M_FIL_01, M_FIL_02, M_FIL_06, M_FIL_07,M_FIL_04,M_FIL_08};
dp=1..6;


SSD_of_exam=[C(M_FIL_03), A(SPS_01), C(M_FIL_01), C(M_FIL_02), C(M_FIL_06), C(M_FIL_07),
             C(M_FIL_03),  C(M_FIL_01), C(M_FIL_03), C(M_FIL_03), C(M_FIL_02), C(M_FIL_01), C(M_FIL_02), A(SPS_01), C(M_FIL_02), C(M_FIL_04), A(M_STO_02),              
             A(INF), A(INGL), A(M_GGR_01), A(SPS_07), A(L_LIN_03), A(L_FIL_LET_02), A(L_LIN_10), A(L_FIL_LET_10), A(L_FIL_LET_04), A(L_LIN_13), A(L_FIL_LET_14), A(L_LIN_01), A(TIR), A(TIR)];
             

dp_of_exam=[2,1,2,1,1,2,
            3,4,3,4,4,3,3,3,3,3,4,
            5,5,6,6,5,6,5,6,5,6,5,6,5,6];
            
% amin=54;
% amax=180;
% cmin=120;
% cmax=180;

%fp=6;
